sat
(model
(define-fun |label_order(nWeight(1),1)| () Bool true)
(define-fun |leaf(8)| () Bool true)
(define-fun |required(ezcsp__eq(nWeight(3),ezcsp__pl(nWeight(2),5)))| () Bool false)
(define-fun |required(ezcsp__eq(nWeight(1),140))| () Bool false)
(define-fun |required(ezcsp__leq(nWeight(6),ezcsp__mn(ezcsp__pl(28,29),28)))| () Bool false)
(define-fun |leafPos(3,3)| () Bool false)
(define-fun |required(ezcsp__eq(nWeight(1),95))| () Bool false)
(define-fun |required(ezcsp__eq(nWeight(5),ezcsp__pl(nWeight(4),19)))| () Bool false)
(define-fun |posColor(4,green)| () Bool false)
(define-fun |leafWeightCardinality(2,51,82)| () Bool true)
(define-fun |required(ezcsp__leq(nWeight(4),ezcsp__mn(ezcsp__pl(5,13),5)))| () Bool false)
(define-fun |required(ezcsp__leq(nWeight(4),ezcsp__mn(ezcsp__pl(34,19),19)))| () Bool false)
(define-fun |required(ezcsp__eq(nWeight(1),70))| () Bool false)
(define-fun |required(ezcsp__eq(nWeight(1),34))| () Bool false)
(define-fun |required(ezcsp__eq(nWeight(2),53))| () Bool false)
(define-fun |posColor(3,green)| () Bool true)
(define-fun |location(4)| () Bool true)
(define-fun |posColor(3,blue)| () Bool false)
(define-fun |leafPos(1,7)| () Bool false)
(define-fun |required(ezcsp__gt(nWeight(5),ezcsp__mn(ezcsp__pl(61,62),61)))| () Bool false)
(define-fun |required(ezcsp__eq(nWeight(1),102))| () Bool false)
(define-fun |required(ezcsp__eq(nWeight(1),148))| () Bool false)
(define-fun |leafWeightCardinality(7,89,91)| () Bool true)
(define-fun |required(ezcsp__eq(nWeight(2),133))| () Bool false)
(define-fun |posColor(1,red)| () Bool false)
(define-fun |cspvar(nWeight(2),0,445)| () Bool true)
(define-fun |required(ezcsp__eq(nWeight(4),ezcsp__pl(nWeight(3),61)))| () Bool false)
(define-fun |posColor(3,red)| () Bool false)
(define-fun |required(ezcsp__eq(nWeight(7),ezcsp__pl(nWeight(6),61)))| () Bool true)
(define-fun |required(ezcsp__eq(nWeight(3),123))| () Bool false)
(define-fun |posColor(7,green)| () Bool false)
(define-fun |required(ezcsp__eq(nWeight(1),120))| () Bool false)
(define-fun |required(ezcsp__eq(nWeight(7),18))| () Bool false)
(define-fun |required(ezcsp__eq(nWeight(6),ezcsp__pl(nWeight(5),28)))| () Bool false)
(define-fun |required(ezcsp__eq(nWeight(4),ezcsp__pl(nWeight(3),19)))| () Bool false)
(define-fun |required(ezcsp__eq(nWeight(1),78))| () Bool false)
(define-fun |leafPos(5,7)| () Bool false)
(define-fun |required(ezcsp__gt(nWeight(2),ezcsp__mn(ezcsp__pl(28,29),28)))| () Bool false)
(define-fun |leafPos(5,0)| () Bool false)
(define-fun |required(ezcsp__eq(nWeight(1),93))| () Bool false)
(define-fun |leafPos(6,3)| () Bool false)
(define-fun |leafPos(8,6)| () Bool false)
(define-fun |required(ezcsp__eq(nWeight(5),53))| () Bool false)
(define-fun |required(ezcsp__leq(nWeight(1),ezcsp__mn(ezcsp__pl(34,19),19)))| () Bool false)
(define-fun 449 () Bool false)
(define-fun 448 () Bool false)
(define-fun 443 () Bool false)
(define-fun 442 () Bool false)
(define-fun 441 () Bool false)
(define-fun 440 () Bool false)
(define-fun 447 () Bool false)
(define-fun 446 () Bool false)
(define-fun 445 () Bool false)
(define-fun |leafPos(7,3)| () Bool false)
(define-fun |leafPos(2,7)| () Bool false)
(define-fun 108 () Bool true)
(define-fun 109 () Bool true)
(define-fun |required(ezcsp__gt(nWeight(5),ezcsp__mn(ezcsp__pl(51,82),51)))| () Bool false)
(define-fun |leafPos(6,4)| () Bool false)
(define-fun |required(ezcsp__gt(nWeight(4),ezcsp__mn(ezcsp__pl(89,91),89)))| () Bool false)
(define-fun |leafPos(4,5)| () Bool false)
(define-fun 438 () Bool false)
(define-fun 439 () Bool false)
(define-fun 436 () Bool false)
(define-fun 437 () Bool false)
(define-fun 434 () Bool false)
(define-fun 435 () Bool false)
(define-fun 432 () Bool false)
(define-fun 433 () Bool false)
(define-fun 430 () Bool false)
(define-fun 431 () Bool false)
(define-fun |required(ezcsp__gt(nWeight(6),ezcsp__mn(ezcsp__pl(61,62),61)))| () Bool false)
(define-fun |required(ezcsp__eq(nWeight(7),180))| () Bool false)
(define-fun |required(ezcsp__leq(nWeight(4),ezcsp__mn(ezcsp__pl(89,91),89)))| () Bool false)
(define-fun |required(ezcsp__gt(nWeight(6),ezcsp__mn(ezcsp__pl(59,93),59)))| () Bool false)
(define-fun |required(ezcsp__eq(nWeight(1),117))| () Bool false)
(define-fun |required(ezcsp__gt(nWeight(2),ezcsp__mn(ezcsp__pl(51,82),51)))| () Bool false)
(define-fun |posColor(6,green)| () Bool false)
(define-fun |required(ezcsp__eq(nWeight(1),94))| () Bool false)
(define-fun |leaf(3)| () Bool true)
(define-fun |required(ezcsp__leq(nWeight(2),ezcsp__mn(ezcsp__pl(28,29),28)))| () Bool false)
(define-fun |posColor(6,red)| () Bool false)
(define-fun |required(ezcsp__sum(list(nWeight,1),ezcsp__leq,445))| () Bool true)
(define-fun |color(red)| () Bool true)
(define-fun 99 () Bool true)
(define-fun 98 () Bool true)
(define-fun |leafPos(1,2)| () Bool false)
(define-fun 424 () Bool true)
(define-fun |required(ezcsp__leq(nWeight(3),ezcsp__mn(ezcsp__pl(5,13),5)))| () Bool false)
(define-fun |leafPos(3,7)| () Bool false)
(define-fun |posColor(7,blue)| () Bool false)
(define-fun |required(ezcsp__leq(nWeight(5),ezcsp__mn(ezcsp__pl(51,82),51)))| () Bool false)
(define-fun |required(ezcsp__gt(nWeight(5),ezcsp__mn(ezcsp__pl(28,29),28)))| () Bool false)
(define-fun |required(ezcsp__leq(nWeight(5),ezcsp__mn(ezcsp__pl(58,0),0)))| () Bool true)
(define-fun |required(ezcsp__eq(nWeight(5),ezcsp__pl(nWeight(4),51)))| () Bool false)
(define-fun |location(0)| () Bool true)
(define-fun |required(ezcsp__eq(nWeight(5),ezcsp__pl(nWeight(4),61)))| () Bool false)
(define-fun |required(ezcsp__eq(nWeight(1),112))| () Bool false)
(define-fun |required(ezcsp__eq(nWeight(6),152))| () Bool false)
(define-fun 146 () Bool true)
(define-fun 147 () Bool true)
(define-fun |required(ezcsp__eq(nWeight(1),80))| () Bool false)
(define-fun |required(ezcsp__eq(nWeight(3),ezcsp__pl(nWeight(2),51)))| () Bool false)
(define-fun |required(ezcsp__eq(nWeight(2),ezcsp__pl(nWeight(1),59)))| () Bool false)
(define-fun |required(ezcsp__eq(nWeight(6),ezcsp__pl(nWeight(5),5)))| () Bool false)
(define-fun |required(ezcsp__leq(nWeight(3),ezcsp__mn(ezcsp__pl(61,62),61)))| () Bool false)
(define-fun |required(ezcsp__leq(nWeight(3),ezcsp__mn(ezcsp__pl(89,91),89)))| () Bool false)
(define-fun |required(ezcsp__eq(nWeight(2),ezcsp__pl(nWeight(1),89)))| () Bool false)
(define-fun |required(ezcsp__leq(nWeight(4),ezcsp__mn(ezcsp__pl(59,93),59)))| () Bool false)
(define-fun |leafPos(6,0)| () Bool false)
(define-fun |required(ezcsp__leq(nWeight(5),ezcsp__mn(ezcsp__pl(34,19),19)))| () Bool false)
(define-fun |required(ezcsp__gt(nWeight(6),ezcsp__mn(ezcsp__pl(51,82),51)))| () Bool false)
(define-fun |required(ezcsp__eq(nWeight(3),ezcsp__pl(nWeight(2),89)))| () Bool false)
(define-fun |leafPos(8,3)| () Bool false)
(define-fun |leafPos(4,1)| () Bool false)
(define-fun |posColor(1,green)| () Bool true)
(define-fun |leaf(1)| () Bool true)
(define-fun |required(ezcsp__eq(nWeight(7),ezcsp__pl(nWeight(6),51)))| () Bool false)
(define-fun |leafPos(7,6)| () Bool false)
(define-fun |innerNode(3)| () Bool true)
(define-fun |leafPos(2,4)| () Bool false)
(define-fun |required(ezcsp__eq(nWeight(1),133))| () Bool false)
(define-fun |coloredPos(2)| () Bool true)
(define-fun |label_order(nWeight(5),1)| () Bool true)
(define-fun 129 () Bool true)
(define-fun 494 () Bool false)
(define-fun |required(ezcsp__leq(nWeight(6),ezcsp__mn(ezcsp__pl(51,82),51)))| () Bool false)
(define-fun 139 () Bool true)
(define-fun 138 () Bool true)
(define-fun 490 () Bool false)
(define-fun 491 () Bool false)
(define-fun 492 () Bool false)
(define-fun 493 () Bool false)
(define-fun |required(ezcsp__eq(nWeight(3),180))| () Bool false)
(define-fun |required(ezcsp__eq(nWeight(5),58))| () Bool false)
(define-fun |leaf(7)| () Bool true)
(define-fun |required(ezcsp__eq(nWeight(5),180))| () Bool false)
(define-fun |required(ezcsp__eq(nWeight(1),147))| () Bool false)
(define-fun |leafPos(7,2)| () Bool false)
(define-fun |posColor(2,green)| () Bool false)
(define-fun |required(ezcsp__gt(nWeight(1),ezcsp__mn(ezcsp__pl(89,91),89)))| () Bool false)
(define-fun |leafWeightCardinality(1,58,0)| () Bool true)
(define-fun 453 () Bool false)
(define-fun |required(ezcsp__eq(nWeight(1),33))| () Bool false)
(define-fun |required(ezcsp__gt(nWeight(4),ezcsp__mn(ezcsp__pl(34,19),19)))| () Bool false)
(define-fun |posColor(5,green)| () Bool true)
(define-fun |required(ezcsp__eq(nWeight(6),57))| () Bool false)
(define-fun |required(ezcsp__eq(nWeight(1),180))| () Bool false)
(define-fun |required(ezcsp__eq(nWeight(4),18))| () Bool false)
(define-fun |required(ezcsp__eq(nWeight(1),77))| () Bool false)
(define-fun |required(ezcsp__eq(nWeight(1),39))| () Bool false)
(define-fun |required(ezcsp__eq(nWeight(5),123))| () Bool false)
(define-fun |required(ezcsp__eq(nWeight(4),123))| () Bool false)
(define-fun |required(ezcsp__eq(nWeight(6),58))| () Bool false)
(define-fun |required(ezcsp__eq(nWeight(4),ezcsp__pl(nWeight(3),5)))| () Bool false)
(define-fun |posColor(7,red)| () Bool true)
(define-fun |required(ezcsp__leq(nWeight(6),ezcsp__mn(ezcsp__pl(89,91),89)))| () Bool false)
(define-fun |required(ezcsp__gt(nWeight(2),ezcsp__mn(ezcsp__pl(5,13),5)))| () Bool false)
(define-fun |innerNode(4)| () Bool true)
(define-fun |required(ezcsp__gt(nWeight(4),ezcsp__mn(ezcsp__pl(5,13),5)))| () Bool true)
(define-fun |required(ezcsp__eq(nWeight(3),152))| () Bool false)
(define-fun |required(ezcsp__eq(nWeight(5),57))| () Bool false)
(define-fun |cspvar(nWeight(3),0,445)| () Bool true)
(define-fun |cspvar(nWeight(4),0,445)| () Bool true)
(define-fun |required(ezcsp__eq(nWeight(2),57))| () Bool false)
(define-fun 88 () Bool true)
(define-fun 89 () Bool true)
(define-fun |required(ezcsp__gt(nWeight(3),ezcsp__mn(ezcsp__pl(89,91),89)))| () Bool false)
(define-fun |location(7)| () Bool true)
(define-fun |required(ezcsp__leq(nWeight(5),ezcsp__mn(ezcsp__pl(89,91),89)))| () Bool false)
(define-fun |leafPos(1,6)| () Bool true)
(define-fun |leafPos(3,2)| () Bool false)
(define-fun |required(ezcsp__eq(nWeight(3),ezcsp__pl(nWeight(2),0)))| () Bool false)
(define-fun |required(ezcsp__gt(nWeight(2),ezcsp__mn(ezcsp__pl(89,91),89)))| () Bool false)
(define-fun |leafCost(8,5)| () Bool true)
(define-fun |required(ezcsp__eq(nWeight(4),ezcsp__pl(nWeight(3),59)))| () Bool true)
(define-fun |required(ezcsp__gt(nWeight(6),ezcsp__mn(ezcsp__pl(58,0),0)))| () Bool false)
(define-fun |label_order(nWeight(7),1)| () Bool true)
(define-fun |required(ezcsp__eq(nWeight(4),57))| () Bool false)
(define-fun |leafCost(6,61)| () Bool true)
(define-fun |required(ezcsp__eq(nWeight(6),133))| () Bool false)
(define-fun |required(ezcsp__gt(nWeight(5),ezcsp__mn(ezcsp__pl(59,93),59)))| () Bool false)
(define-fun |required(ezcsp__eq(nWeight(1),118))| () Bool false)
(define-fun |leafPos(5,6)| () Bool false)
(define-fun |required(ezcsp__eq(nWeight(1),53))| () Bool false)
(define-fun |required(ezcsp__gt(nWeight(6),ezcsp__mn(ezcsp__pl(89,91),89)))| () Bool false)
(define-fun |required(ezcsp__gt(nWeight(2),ezcsp__mn(ezcsp__pl(59,93),59)))| () Bool false)
(define-fun |required(ezcsp__gt(nWeight(3),ezcsp__mn(ezcsp__pl(59,93),59)))| () Bool false)
(define-fun |required(ezcsp__eq(nWeight(2),58))| () Bool false)
(define-fun |leafPos(8,7)| () Bool false)
(define-fun 458 () Bool false)
(define-fun 459 () Bool false)
(define-fun 450 () Bool false)
(define-fun 451 () Bool false)
(define-fun 452 () Bool false)
(define-fun |required(ezcsp__leq(nWeight(2),ezcsp__mn(ezcsp__pl(59,93),59)))| () Bool false)
(define-fun 454 () Bool false)
(define-fun 455 () Bool false)
(define-fun 456 () Bool false)
(define-fun 457 () Bool false)
(define-fun |required(ezcsp__eq(nWeight(1),110))| () Bool false)
(define-fun |required(ezcsp__eq(nWeight(7),133))| () Bool false)
(define-fun 172 () Bool true)
(define-fun 171 () Bool true)
(define-fun |required(ezcsp__gt(nWeight(6),ezcsp__mn(ezcsp__pl(28,29),28)))| () Bool false)
(define-fun |leafPos(6,5)| () Bool false)
(define-fun |required(ezcsp__gt(nWeight(1),ezcsp__mn(ezcsp__pl(28,29),28)))| () Bool false)
(define-fun |leafPos(4,2)| () Bool false)
(define-fun |required(ezcsp__gt(nWeight(5),ezcsp__mn(ezcsp__pl(5,13),5)))| () Bool false)
(define-fun |required(ezcsp__gt(nWeight(1),ezcsp__mn(ezcsp__pl(58,0),0)))| () Bool false)
(define-fun |required(ezcsp__leq(nWeight(4),ezcsp__mn(ezcsp__pl(58,0),0)))| () Bool false)
(define-fun |coloredPos(7)| () Bool true)
(define-fun |leafPos(2,1)| () Bool false)
(define-fun |leafPos(5,3)| () Bool false)
(define-fun |required(ezcsp__eq(nWeight(7),152))| () Bool false)
(define-fun |required(ezcsp__leq(nWeight(1),ezcsp__mn(ezcsp__pl(58,0),0)))| () Bool false)
(define-fun |required(ezcsp__gt(nWeight(2),ezcsp__mn(ezcsp__pl(61,62),61)))| () Bool false)
(define-fun |required(ezcsp__eq(nWeight(5),ezcsp__pl(nWeight(4),28)))| () Bool false)
(define-fun |required(ezcsp__eq(nWeight(6),53))| () Bool false)
(define-fun |leaf(4)| () Bool true)
(define-fun |required(ezcsp__leq(nWeight(1),ezcsp__mn(ezcsp__pl(61,62),61)))| () Bool false)
(define-fun |required(ezcsp__eq(nWeight(3),18))| () Bool false)
(define-fun |leafPos(7,5)| () Bool false)
(define-fun |required(ezcsp__gt(nWeight(4),ezcsp__mn(ezcsp__pl(59,93),59)))| () Bool false)
(define-fun |required(ezcsp__eq(nWeight(1),89))| () Bool false)
(define-fun |required(ezcsp__eq(nWeight(3),ezcsp__pl(nWeight(2),59)))| () Bool false)
(define-fun |required(ezcsp__leq(nWeight(4),ezcsp__mn(ezcsp__pl(61,62),61)))| () Bool false)
(define-fun |leafPos(1,1)| () Bool false)
(define-fun |leafPos(3,1)| () Bool true)
(define-fun |required(ezcsp__gt(nWeight(4),ezcsp__mn(ezcsp__pl(28,29),28)))| () Bool false)
(define-fun |leafPos(3,6)| () Bool false)
(define-fun |required(ezcsp__eq(nWeight(7),53))| () Bool false)
(define-fun |required(ezcsp__eq(nWeight(1),79))| () Bool false)
(define-fun |required(ezcsp__leq(nWeight(3),ezcsp__mn(ezcsp__pl(28,29),28)))| () Bool false)
(define-fun |required(ezcsp__leq(nWeight(3),ezcsp__mn(ezcsp__pl(58,0),0)))| () Bool false)
(define-fun |required(ezcsp__eq(nWeight(7),ezcsp__pl(nWeight(6),28)))| () Bool false)
(define-fun |required(ezcsp__eq(nWeight(6),ezcsp__pl(nWeight(5),61)))| () Bool false)
(define-fun |required(ezcsp__gt(nWeight(1),ezcsp__mn(ezcsp__pl(34,19),19)))| () Bool false)
(define-fun |required(ezcsp__leq(nWeight(1),ezcsp__mn(ezcsp__pl(59,93),59)))| () Bool false)
(define-fun |required(ezcsp__eq(nWeight(1),119))| () Bool false)
(define-fun |posColor(6,blue)| () Bool true)
(define-fun |required(ezcsp__eq(nWeight(1),18))| () Bool false)
(define-fun 79 () Bool true)
(define-fun 78 () Bool true)
(define-fun |max_total_weight(445)| () Bool true)
(define-fun |location(3)| () Bool true)
(define-fun |required(ezcsp__leq(nWeight(5),ezcsp__mn(ezcsp__pl(59,93),59)))| () Bool false)
(define-fun |required(ezcsp__eq(nWeight(7),ezcsp__pl(nWeight(6),5)))| () Bool false)
(define-fun |leafWeightCardinality(3,28,29)| () Bool true)
(define-fun |posColor(5,blue)| () Bool false)
(define-fun |required(ezcsp__eq(nWeight(4),ezcsp__pl(nWeight(3),89)))| () Bool false)
(define-fun |required(ezcsp__leq(nWeight(6),ezcsp__mn(ezcsp__pl(59,93),59)))| () Bool false)
(define-fun |leafWeightCardinality(8,5,13)| () Bool true)
(define-fun |required(ezcsp__eq(nWeight(1),63))| () Bool false)
(define-fun |posColor(2,blue)| () Bool false)
(define-fun |required(ezcsp__eq(nWeight(5),ezcsp__pl(nWeight(4),5)))| () Bool false)
(define-fun |required(ezcsp__eq(nWeight(1),24))| () Bool false)
(define-fun |required(ezcsp__gt(nWeight(3),ezcsp__mn(ezcsp__pl(34,19),19)))| () Bool false)
(define-fun |cspvar(nWeight(6),0,445)| () Bool true)
(define-fun |leafPos(5,2)| () Bool false)
(define-fun |required(ezcsp__eq(nWeight(2),ezcsp__pl(nWeight(1),0)))| () Bool false)
(define-fun |required(ezcsp__eq(nWeight(3),ezcsp__pl(nWeight(2),19)))| () Bool false)
(define-fun |required(ezcsp__eq(nWeight(3),133))| () Bool false)
(define-fun |leafPos(6,1)| () Bool false)
(define-fun |leafPos(8,0)| () Bool false)
(define-fun |required(ezcsp__eq(nWeight(2),18))| () Bool false)
(define-fun |required(ezcsp__eq(nWeight(7),58))| () Bool false)
(define-fun |leafPos(7,1)| () Bool false)
(define-fun |required(ezcsp__eq(nWeight(2),ezcsp__pl(nWeight(1),51)))| () Bool true)
(define-fun |required(ezcsp__eq(nWeight(3),ezcsp__pl(nWeight(2),28)))| () Bool false)
(define-fun |coloredPos(3)| () Bool true)
(define-fun |leafPos(2,5)| () Bool false)
(define-fun |required(ezcsp__leq(nWeight(5),ezcsp__mn(ezcsp__pl(28,29),28)))| () Bool false)
(define-fun 128 () Bool true)
(define-fun |required(ezcsp__eq(nWeight(1),150))| () Bool false)
(define-fun |cspvar(nWeight(1),0,445)| () Bool true)
(define-fun |leafPos(2,0)| () Bool false)
(define-fun |location(1)| () Bool true)
(define-fun |required(ezcsp__eq(nWeight(2),180))| () Bool false)
(define-fun |required(ezcsp__gt(nWeight(1),ezcsp__mn(ezcsp__pl(51,82),51)))| () Bool false)
(define-fun |coloredPos(4)| () Bool true)
(define-fun |label_order(nWeight(4),1)| () Bool true)
(define-fun |leafPos(4,7)| () Bool false)
(define-fun |color(blue)| () Bool true)
(define-fun |required(ezcsp__gt(nWeight(6),ezcsp__mn(ezcsp__pl(5,13),5)))| () Bool false)
(define-fun |required(ezcsp__gt(nWeight(3),ezcsp__mn(ezcsp__pl(5,13),5)))| () Bool false)
(define-fun |required(ezcsp__gt(nWeight(1),ezcsp__mn(ezcsp__pl(59,93),59)))| () Bool false)
(define-fun |required(ezcsp__eq(nWeight(7),57))| () Bool false)
(define-fun |label_order(nWeight(2),1)| () Bool true)
(define-fun |required(ezcsp__gt(nWeight(1),ezcsp__mn(ezcsp__pl(5,13),5)))| () Bool false)
(define-fun |required(ezcsp__eq(nWeight(6),18))| () Bool false)
(define-fun |posColor(5,red)| () Bool false)
(define-fun |cspvar(nWeight(5),0,445)| () Bool true)
(define-fun |required(ezcsp__eq(nWeight(1),56))| () Bool false)
(define-fun |required(ezcsp__leq(nWeight(3),ezcsp__mn(ezcsp__pl(51,82),51)))| () Bool false)
(define-fun |required(ezcsp__eq(nWeight(2),ezcsp__pl(nWeight(1),28)))| () Bool false)
(define-fun |innerNode(5)| () Bool true)
(define-fun |required(ezcsp__eq(nWeight(4),53))| () Bool false)
(define-fun |required(ezcsp__gt(nWeight(4),ezcsp__mn(ezcsp__pl(58,0),0)))| () Bool false)
(define-fun |required(ezcsp__eq(nWeight(1),61))| () Bool false)
(define-fun |color(green)| () Bool true)
(define-fun |required(ezcsp__eq(nWeight(7),ezcsp__pl(nWeight(6),89)))| () Bool false)
(define-fun 444 () Bool false)
(define-fun |required(ezcsp__leq(nWeight(5),ezcsp__mn(ezcsp__pl(5,13),5)))| () Bool false)
(define-fun |leafPos(3,5)| () Bool false)
(define-fun |required(ezcsp__leq(nWeight(6),ezcsp__mn(ezcsp__pl(58,0),0)))| () Bool false)
(define-fun |required(ezcsp__eq(nWeight(3),58))| () Bool false)
(define-fun |leafWeightCardinality(6,61,62)| () Bool true)
(define-fun |leafPos(1,5)| () Bool false)
(define-fun |required(ezcsp__eq(nWeight(1),66))| () Bool false)
(define-fun |num(8)| () Bool true)
(define-fun |required(ezcsp__eq(nWeight(1),10))| () Bool false)
(define-fun |leafPos(8,4)| () Bool false)
(define-fun |leafPos(4,6)| () Bool false)
(define-fun 67 () Bool true)
(define-fun |required(ezcsp__eq(nWeight(3),53))| () Bool true)
(define-fun 69 () Bool false)
(define-fun |leafPos(5,5)| () Bool false)
(define-fun |required(ezcsp__eq(nWeight(5),152))| () Bool false)
(define-fun |required(ezcsp__eq(nWeight(4),58))| () Bool false)
(define-fun |required(ezcsp__eq(nWeight(6),ezcsp__pl(nWeight(5),89)))| () Bool false)
(define-fun |leafCost(3,28)| () Bool true)
(define-fun |required(ezcsp__eq(nWeight(1),5))| () Bool false)
(define-fun 469 () Bool false)
(define-fun 468 () Bool false)
(define-fun 465 () Bool false)
(define-fun 464 () Bool false)
(define-fun 467 () Bool false)
(define-fun 466 () Bool false)
(define-fun 461 () Bool false)
(define-fun 460 () Bool false)
(define-fun 463 () Bool false)
(define-fun 462 () Bool false)
(define-fun 166 () Bool true)
(define-fun 167 () Bool true)
(define-fun |required(ezcsp__leq(nWeight(2),ezcsp__mn(ezcsp__pl(58,0),0)))| () Bool false)
(define-fun 161 () Bool true)
(define-fun 162 () Bool true)
(define-fun |leafCost(5,59)| () Bool true)
(define-fun |leafPos(6,6)| () Bool false)
(define-fun |leafCost(1,0)| () Bool true)
(define-fun |required(ezcsp__gt(nWeight(5),ezcsp__mn(ezcsp__pl(34,19),19)))| () Bool false)
(define-fun |required(ezcsp__leq(nWeight(1),ezcsp__mn(ezcsp__pl(5,13),5)))| () Bool false)
(define-fun |required(ezcsp__eq(nWeight(6),ezcsp__pl(nWeight(5),51)))| () Bool false)
(define-fun |required(ezcsp__eq(nWeight(1),85))| () Bool false)
(define-fun |leafPos(4,3)| () Bool true)
(define-fun |required(ezcsp__leq(nWeight(4),ezcsp__mn(ezcsp__pl(28,29),28)))| () Bool false)
(define-fun |innerNode(1)| () Bool true)
(define-fun |leafPos(2,2)| () Bool true)
(define-fun |required(ezcsp__leq(nWeight(5),ezcsp__mn(ezcsp__pl(61,62),61)))| () Bool false)
(define-fun |required(ezcsp__leq(nWeight(2),ezcsp__mn(ezcsp__pl(61,62),61)))| () Bool false)
(define-fun |required(ezcsp__leq(nWeight(6),ezcsp__mn(ezcsp__pl(61,62),61)))| () Bool true)
(define-fun |required(ezcsp__gt(nWeight(3),ezcsp__mn(ezcsp__pl(51,82),51)))| () Bool false)
(define-fun |leaf(5)| () Bool true)
(define-fun |required(ezcsp__eq(nWeight(3),ezcsp__pl(nWeight(2),61)))| () Bool false)
(define-fun |required(ezcsp__gt(nWeight(4),ezcsp__mn(ezcsp__pl(61,62),61)))| () Bool false)
(define-fun |required(ezcsp__leq(nWeight(3),ezcsp__mn(ezcsp__pl(59,93),59)))| () Bool true)
(define-fun |leafCost(7,89)| () Bool true)
(define-fun |leafPos(7,4)| () Bool false)
(define-fun |required(ezcsp__eq(nWeight(6),ezcsp__pl(nWeight(5),19)))| () Bool false)
(define-fun |required(ezcsp__gt(nWeight(4),ezcsp__mn(ezcsp__pl(51,82),51)))| () Bool false)
(define-fun |required(ezcsp__eq(nWeight(1),86))| () Bool false)
(define-fun |leafPos(3,0)| () Bool false)
(define-fun |required(ezcsp__leq(nWeight(2),ezcsp__mn(ezcsp__pl(5,13),5)))| () Bool false)
(define-fun |required(ezcsp__eq(nWeight(1),58))| () Bool false)
(define-fun |required(ezcsp__eq(nWeight(1),109))| () Bool false)
(define-fun |required(ezcsp__eq(nWeight(5),ezcsp__pl(nWeight(4),89)))| () Bool false)
(define-fun |required(ezcsp__leq(nWeight(6),ezcsp__mn(ezcsp__pl(34,19),19)))| () Bool false)
(define-fun |required(ezcsp__eq(nWeight(2),152))| () Bool false)
(define-fun |required(ezcsp__eq(nWeight(1),178))| () Bool false)
(define-fun |leafWeightCardinality(4,34,19)| () Bool true)
(define-fun |posColor(2,red)| () Bool true)
(define-fun |required(ezcsp__eq(nWeight(6),123))| () Bool false)
(define-fun |innerNode(7)| () Bool true)
(define-fun |location(5)| () Bool true)
(define-fun |required(ezcsp__eq(nWeight(1),64))| () Bool false)
(define-fun |required(ezcsp__eq(nWeight(4),133))| () Bool false)
(define-fun |leafPos(1,0)| () Bool false)
(define-fun |location(2)| () Bool true)
(define-fun |label_order(nWeight(6),1)| () Bool true)
(define-fun |required(ezcsp__eq(nWeight(6),ezcsp__pl(nWeight(5),0)))| () Bool true)
(define-fun |required(ezcsp__leq(nWeight(1),ezcsp__mn(ezcsp__pl(28,29),28)))| () Bool false)
(define-fun |required(ezcsp__eq(nWeight(4),ezcsp__pl(nWeight(3),0)))| () Bool false)
(define-fun |required(ezcsp__eq(nWeight(6),ezcsp__pl(nWeight(5),59)))| () Bool false)
(define-fun |required(ezcsp__eq(nWeight(4),ezcsp__pl(nWeight(3),28)))| () Bool false)
(define-fun |posColor(4,red)| () Bool true)
(define-fun |required(ezcsp__gt(nWeight(5),ezcsp__mn(ezcsp__pl(58,0),0)))| () Bool false)
(define-fun |required(ezcsp__gt(nWeight(2),ezcsp__mn(ezcsp__pl(58,0),0)))| () Bool false)
(define-fun |leafPos(5,1)| () Bool false)
(define-fun |required(ezcsp__eq(nWeight(1),123))| () Bool false)
(define-fun |leafPos(6,2)| () Bool false)
(define-fun |required(ezcsp__leq(nWeight(2),ezcsp__mn(ezcsp__pl(89,91),89)))| () Bool false)
(define-fun |leafPos(8,1)| () Bool false)
(define-fun |leafPos(7,0)| () Bool true)
(define-fun |required(ezcsp__gt(nWeight(6),ezcsp__mn(ezcsp__pl(34,19),19)))| () Bool false)
(define-fun |required(ezcsp__eq(nWeight(7),ezcsp__pl(nWeight(6),0)))| () Bool false)
(define-fun |required(ezcsp__gt(nWeight(5),ezcsp__mn(ezcsp__pl(89,91),89)))| () Bool false)
(define-fun |leaf(2)| () Bool true)
(define-fun 68 () Bool true)
(define-fun |required(ezcsp__eq(nWeight(2),ezcsp__pl(nWeight(1),5)))| () Bool false)
(define-fun |required(ezcsp__leq(nWeight(2),ezcsp__mn(ezcsp__pl(51,82),51)))| () Bool false)
(define-fun |leafPos(2,6)| () Bool false)
(define-fun 119 () Bool true)
(define-fun |required(ezcsp__eq(nWeight(1),57))| () Bool true)
(define-fun |posColor(1,blue)| () Bool false)
(define-fun |required(ezcsp__eq(nWeight(5),ezcsp__pl(nWeight(4),0)))| () Bool false)
(define-fun |leafPos(4,4)| () Bool false)
(define-fun |required(ezcsp__eq(nWeight(3),57))| () Bool false)
(define-fun 429 () Bool false)
(define-fun 428 () Bool true)
(define-fun |posColor(4,blue)| () Bool false)
(define-fun 425 () Bool false)
(define-fun |required(ezcsp__eq(nWeight(4),ezcsp__pl(nWeight(3),51)))| () Bool false)
(define-fun 427 () Bool false)
(define-fun 426 () Bool false)
(define-fun |required(ezcsp__leq(nWeight(6),ezcsp__mn(ezcsp__pl(5,13),5)))| () Bool false)
(define-fun |required(ezcsp__eq(nWeight(6),180))| () Bool false)
(define-fun |required(ezcsp__gt(nWeight(2),ezcsp__mn(ezcsp__pl(34,19),19)))| () Bool true)
(define-fun |required(ezcsp__eq(nWeight(4),152))| () Bool false)
(define-fun |required(ezcsp__gt(nWeight(3),ezcsp__mn(ezcsp__pl(28,29),28)))| () Bool false)
(define-fun |location(6)| () Bool true)
(define-fun |innerNode(2)| () Bool true)
(define-fun |required(ezcsp__eq(nWeight(1),62))| () Bool false)
(define-fun |required(ezcsp__eq(nWeight(1),87))| () Bool false)
(define-fun |required(ezcsp__eq(nWeight(1),108))| () Bool false)
(define-fun |leafCost(2,51)| () Bool true)
(define-fun |innerNode(6)| () Bool true)
(define-fun |leafCost(4,19)| () Bool true)
(define-fun |coloredPos(5)| () Bool true)
(define-fun |required(ezcsp__eq(nWeight(7),ezcsp__pl(nWeight(6),19)))| () Bool false)
(define-fun |required(ezcsp__eq(nWeight(5),133))| () Bool false)
(define-fun |leafPos(1,3)| () Bool false)
(define-fun |leafPos(3,4)| () Bool false)
(define-fun |leafPos(1,4)| () Bool false)
(define-fun |label_order(nWeight(3),1)| () Bool true)
(define-fun |cspvar(nWeight(7),0,445)| () Bool true)
(define-fun |required(ezcsp__leq(nWeight(1),ezcsp__mn(ezcsp__pl(51,82),51)))| () Bool true)
(define-fun |leafPos(8,5)| () Bool true)
(define-fun |required(ezcsp__eq(nWeight(5),18))| () Bool true)
(define-fun |required(ezcsp__eq(nWeight(1),28))| () Bool false)
(define-fun |required(ezcsp__eq(nWeight(2),ezcsp__pl(nWeight(1),61)))| () Bool false)
(define-fun |required(ezcsp__leq(nWeight(1),ezcsp__mn(ezcsp__pl(89,91),89)))| () Bool false)
(define-fun |coloredPos(6)| () Bool true)
(define-fun |required(ezcsp__eq(nWeight(7),123))| () Bool false)
(define-fun |required(ezcsp__gt(nWeight(3),ezcsp__mn(ezcsp__pl(61,62),61)))| () Bool false)
(define-fun |required(ezcsp__eq(nWeight(1),152))| () Bool false)
(define-fun |required(ezcsp__gt(nWeight(1),ezcsp__mn(ezcsp__pl(61,62),61)))| () Bool false)
(define-fun |required(ezcsp__eq(nWeight(2),ezcsp__pl(nWeight(1),19)))| () Bool false)
(define-fun |required(ezcsp__leq(nWeight(4),ezcsp__mn(ezcsp__pl(51,82),51)))| () Bool false)
(define-fun |required(ezcsp__eq(nWeight(1),122))| () Bool false)
(define-fun |required(ezcsp__leq(nWeight(3),ezcsp__mn(ezcsp__pl(34,19),19)))| () Bool false)
(define-fun 151 () Bool true)
(define-fun 152 () Bool true)
(define-fun 157 () Bool true)
(define-fun 156 () Bool true)
(define-fun |required(ezcsp__eq(nWeight(5),ezcsp__pl(nWeight(4),59)))| () Bool false)
(define-fun |leafWeightCardinality(5,59,93)| () Bool true)
(define-fun |required(ezcsp__leq(nWeight(2),ezcsp__mn(ezcsp__pl(34,19),19)))| () Bool false)
(define-fun |leafPos(5,4)| () Bool true)
(define-fun |leafPos(6,7)| () Bool true)
(define-fun 118 () Bool true)
(define-fun |leafPos(8,2)| () Bool false)
(define-fun |required(ezcsp__eq(nWeight(4),180))| () Bool false)
(define-fun |leafPos(4,0)| () Bool false)
(define-fun |coloredPos(1)| () Bool true)
(define-fun |required(ezcsp__gt(nWeight(3),ezcsp__mn(ezcsp__pl(58,0),0)))| () Bool false)
(define-fun |leafPos(2,3)| () Bool false)
(define-fun |required(ezcsp__eq(nWeight(1),47))| () Bool false)
(define-fun |required(ezcsp__eq(nWeight(1),51))| () Bool false)
(define-fun |required(ezcsp__eq(nWeight(2),123))| () Bool false)
(define-fun 489 () Bool false)
(define-fun 488 () Bool false)
(define-fun 487 () Bool false)
(define-fun 486 () Bool false)
(define-fun 485 () Bool false)
(define-fun 484 () Bool false)
(define-fun 483 () Bool false)
(define-fun 482 () Bool false)
(define-fun 481 () Bool false)
(define-fun 480 () Bool false)
(define-fun |leafPos(7,7)| () Bool false)
(define-fun |leaf(6)| () Bool true)
(define-fun |required(ezcsp__eq(nWeight(7),ezcsp__pl(nWeight(6),59)))| () Bool false)
(define-fun 472 () Bool false)
(define-fun 473 () Bool false)
(define-fun 470 () Bool false)
(define-fun 471 () Bool false)
(define-fun 476 () Bool false)
(define-fun 477 () Bool false)
(define-fun 474 () Bool false)
(define-fun 475 () Bool false)
(define-fun |required(ezcsp__eq(nWeight(1),59))| () Bool false)
(define-fun 478 () Bool false)
(define-fun 479 () Bool false)
(define-fun |nWeight(2)| () Int 108)
(define-fun |nWeight(3)| () Int 53)
(define-fun |nWeight(4)| () Int 112)
(define-fun |nWeight(6)| () Int 18)
(define-fun |nWeight(1)| () Int 57)
(define-fun |nWeight(5)| () Int 18)
(define-fun |nWeight(7)| () Int 79)
)
